MLW03
Position Depot: Center
Horizon for Depot: Large
Position of customers: Mixt
Distribution of the demand: Large
Width of time windows: Wide
Distribution of the service: Large

VEHICLE 
NUMBER 	 CAPACITY 
 5 	 	 538 
 
CUSTOMER
CUST NO. 	 XCOORD.  	 YCOORD. 	 DEMAND 	 READY TIME 	 DUE DATE 	 SERVICE TIME 
 0 	 	 500 	 	 500 	 	 0 	 	 0 	 	 4566 	 	 0 
  1 	 	 528 	 	 336 	 	 51 	 	 1939 	 	 2366 	 	 134 
  2 	 	 747 	 	 582 	 	 100 	 	 1978 	 	 2384 	 	 197 
  3 	 	 212 	 	 790 	 	 16 	 	 632 	 	 892 	 	 107 
  4 	 	 564 	 	 239 	 	 13 	 	 4111 	 	 4389 	 	 140 
  5 	 	 610 	 	 398 	 	 28 	 	 149 	 	 448 	 	 143 
  6 	 	 586 	 	 505 	 	 100 	 	 1678 	 	 2026 	 	 115 
  7 	 	 155 	 	 844 	 	 6 	 	 3383 	 	 3624 	 	 164 
  8 	 	 615 	 	 853 	 	 87 	 	 183 	 	 408 	 	 139 
  9 	 	 625 	 	 378 	 	 65 	 	 28 	 	 318 	 	 194 
  10 	 	 519 	 	 490 	 	 38 	 	 1539 	 	 1814 	 	 149 
  11 	 	 695 	 	 781 	 	 5 	 	 1323 	 	 1625 	 	 130 
  12 	 	 187 	 	 843 	 	 60 	 	 377 	 	 672 	 	 186 
  13 	 	 825 	 	 601 	 	 95 	 	 3907 	 	 4398 	 	 125 
  14 	 	 615 	 	 475 	 	 65 	 	 2932 	 	 3288 	 	 184 
  15 	 	 92 	 	 463 	 	 77 	 	 2303 	 	 2561 	 	 129 
  16 	 	 462 	 	 281 	 	 63 	 	 2539 	 	 2758 	 	 183 
  17 	 	 603 	 	 353 	 	 98 	 	 653 	 	 885 	 	 146 
  18 	 	 512 	 	 286 	 	 10 	 	 1813 	 	 2026 	 	 130 
  19 	 	 657 	 	 480 	 	 45 	 	 2831 	 	 3107 	 	 197 
  20 	 	 498 	 	 356 	 	 75 	 	 332 	 	 728 	 	 196 
  21 	 	 689 	 	 340 	 	 85 	 	 1701 	 	 1974 	 	 122 
  22 	 	 637 	 	 521 	 	 70 	 	 1512 	 	 1991 	 	 165 
  23 	 	 151 	 	 875 	 	 53 	 	 382 	 	 845 	 	 104 
  24 	 	 598 	 	 807 	 	 73 	 	 287 	 	 570 	 	 112 
  25 	 	 711 	 	 530 	 	 48 	 	 2708 	 	 2966 	 	 150 
  26 	 	 569 	 	 586 	 	 30 	 	 2522 	 	 2930 	 	 109 
  27 	 	 922 	 	 539 	 	 25 	 	 2577 	 	 2947 	 	 163 
  28 	 	 471 	 	 256 	 	 37 	 	 2594 	 	 3058 	 	 139 
  29 	 	 847 	 	 756 	 	 82 	 	 3108 	 	 3556 	 	 149 
  30 	 	 752 	 	 766 	 	 81 	 	 1660 	 	 2127 	 	 187 
  31 	 	 566 	 	 781 	 	 78 	 	 3274 	 	 3600 	 	 112 
  32 	 	 722 	 	 570 	 	 62 	 	 64 	 	 311 	 	 109 
  33 	 	 518 	 	 829 	 	 31 	 	 3445 	 	 3870 	 	 197 
  34 	 	 443 	 	 235 	 	 17 	 	 2907 	 	 3173 	 	 158 
  35 	 	 742 	 	 354 	 	 70 	 	 1755 	 	 2080 	 	 139 
  36 	 	 492 	 	 404 	 	 91 	 	 4066 	 	 4293 	 	 126 
  37 	 	 743 	 	 801 	 	 58 	 	 2507 	 	 2720 	 	 196 
  38 	 	 753 	 	 463 	 	 68 	 	 2443 	 	 2667 	 	 181 
  39 	 	 140 	 	 485 	 	 11 	 	 4149 	 	 4566 	 	 199 
  40 	 	 96 	 	 144 	 	 4 	 	 194 	 	 596 	 	 200 
  41 	 	 76 	 	 851 	 	 28 	 	 1143 	 	 1599 	 	 148 
  42 	 	 989 	 	 212 	 	 46 	 	 963 	 	 1176 	 	 168 
  43 	 	 582 	 	 48 	 	 47 	 	 95 	 	 505 	 	 199 
  44 	 	 915 	 	 749 	 	 27 	 	 2094 	 	 2589 	 	 150 
  45 	 	 884 	 	 261 	 	 73 	 	 2922 	 	 3351 	 	 134 
  46 	 	 244 	 	 201 	 	 19 	 	 2149 	 	 2363 	 	 189 
  47 	 	 269 	 	 235 	 	 91 	 	 1617 	 	 2018 	 	 170 
  48 	 	 49 	 	 411 	 	 51 	 	 3359 	 	 3720 	 	 113 
  49 	 	 198 	 	 899 	 	 41 	 	 1006 	 	 1405 	 	 159 
  50 	 	 255 	 	 499 	 	 92 	 	 659 	 	 954 	 	 193 
 